800 800
100.00 100.00
124.00 100.00
148.00 100.00
172.00 100.00
196.00 100.00
220.00 100.00
244.00 100.00
268.00 100.00
292.00 100.00
316.00 100.00
340.00 100.00
364.00 100.00
388.00 100.00
412.00 100.00
436.00 100.00
460.00 100.00
484.00 100.00
508.00 100.00
532.00 100.00
556.00 100.00
580.00 100.00
604.00 100.00
628.00 100.00
652.00 100.00
676.00 100.00
100.00 124.00
124.00 124.00
148.00 124.00
172.00 124.00
196.00 124.00
220.00 124.00
244.00 124.00
268.00 124.00
292.00 124.00
316.00 124.00
340.00 124.00
364.00 124.00
388.00 124.00
412.00 124.00
436.00 124.00
460.00 124.00
484.00 124.00
508.00 124.00
532.00 124.00
556.00 124.00
580.00 124.00
604.00 124.00
628.00 124.00
652.00 124.00
676.00 124.00
100.00 148.00
124.00 148.00
148.00 148.00
172.00 148.00
196.00 148.00
220.00 148.00
244.00 148.00
268.00 148.00
292.00 148.00
316.00 148.00
340.00 148.00
364.00 148.00
388.00 148.00
412.00 148.00
436.00 148.00
460.00 148.00
484.00 148.00
508.00 148.00
532.00 148.00
556.00 148.00
580.00 148.00
604.00 148.00
628.00 148.00
652.00 148.00
676.00 148.00
100.00 172.00
124.00 172.00
148.00 172.00
172.00 172.00
196.00 172.00
220.00 172.00
244.00 172.00
268.00 172.00
292.00 172.00
316.00 172.00
340.00 172.00
364.00 172.00
388.00 172.00
412.00 172.00
436.00 172.00
460.00 172.00
484.00 172.00
508.00 172.00
532.00 172.00
556.00 172.00
580.00 172.00
604.00 172.00
628.00 172.00
652.00 172.00
676.00 172.00
100.00 196.00
124.00 196.00
148.00 196.00
172.00 196.00
196.00 196.00
220.00 196.00
244.00 196.00
268.00 196.00
292.00 196.00
316.00 196.00
340.00 196.00
364.00 196.00
388.00 196.00
412.00 196.00
436.00 196.00
460.00 196.00
484.00 196.00
508.00 196.00
532.00 196.00
556.00 196.00
580.00 196.00
604.00 196.00
628.00 196.00
652.00 196.00
676.00 196.00
100.00 220.00
124.00 220.00
148.00 220.00
172.00 220.00
196.00 220.00
220.00 220.00
364.00 220.00
388.00 220.00
412.00 220.00
436.00 220.00
460.00 220.00
484.00 220.00
508.00 220.00
532.00 220.00
556.00 220.00
580.00 220.00
604.00 220.00
628.00 220.00
652.00 220.00
676.00 220.00
100.00 244.00
124.00 244.00
148.00 244.00
172.00 244.00
196.00 244.00
388.00 244.00
412.00 244.00
436.00 244.00
460.00 244.00
484.00 244.00
508.00 244.00
532.00 244.00
556.00 244.00
580.00 244.00
604.00 244.00
628.00 244.00
652.00 244.00
676.00 244.00
100.00 268.00
124.00 268.00
148.00 268.00
172.00 268.00
196.00 268.00
412.00 268.00
436.00 268.00
460.00 268.00
484.00 268.00
508.00 268.00
532.00 268.00
556.00 268.00
580.00 268.00
604.00 268.00
628.00 268.00
652.00 268.00
676.00 268.00
100.00 292.00
124.00 292.00
148.00 292.00
172.00 292.00
196.00 292.00
412.00 292.00
436.00 292.00
460.00 292.00
484.00 292.00
508.00 292.00
532.00 292.00
556.00 292.00
580.00 292.00
604.00 292.00
628.00 292.00
652.00 292.00
676.00 292.00
100.00 316.00
124.00 316.00
148.00 316.00
172.00 316.00
196.00 316.00
412.00 316.00
436.00 316.00
460.00 316.00
484.00 316.00
508.00 316.00
532.00 316.00
556.00 316.00
580.00 316.00
604.00 316.00
628.00 316.00
652.00 316.00
676.00 316.00
100.00 340.00
124.00 340.00
148.00 340.00
172.00 340.00
196.00 340.00
412.00 340.00
436.00 340.00
460.00 340.00
484.00 340.00
508.00 340.00
532.00 340.00
556.00 340.00
580.00 340.00
604.00 340.00
628.00 340.00
652.00 340.00
676.00 340.00
100.00 364.00
124.00 364.00
148.00 364.00
172.00 364.00
196.00 364.00
220.00 364.00
388.00 364.00
412.00 364.00
436.00 364.00
460.00 364.00
484.00 364.00
508.00 364.00
532.00 364.00
556.00 364.00
580.00 364.00
604.00 364.00
628.00 364.00
652.00 364.00
676.00 364.00
100.00 388.00
124.00 388.00
148.00 388.00
172.00 388.00
196.00 388.00
220.00 388.00
244.00 388.00
364.00 388.00
388.00 388.00
412.00 388.00
436.00 388.00
460.00 388.00
484.00 388.00
508.00 388.00
532.00 388.00
556.00 388.00
580.00 388.00
604.00 388.00
628.00 388.00
652.00 388.00
676.00 388.00
100.00 412.00
124.00 412.00
148.00 412.00
172.00 412.00
196.00 412.00
220.00 412.00
244.00 412.00
268.00 412.00
292.00 412.00
316.00 412.00
340.00 412.00
364.00 412.00
388.00 412.00
412.00 412.00
436.00 412.00
460.00 412.00
484.00 412.00
508.00 412.00
532.00 412.00
556.00 412.00
580.00 412.00
604.00 412.00
628.00 412.00
652.00 412.00
676.00 412.00
100.00 436.00
124.00 436.00
148.00 436.00
172.00 436.00
196.00 436.00
220.00 436.00
244.00 436.00
268.00 436.00
292.00 436.00
316.00 436.00
340.00 436.00
364.00 436.00
388.00 436.00
412.00 436.00
436.00 436.00
460.00 436.00
484.00 436.00
508.00 436.00
604.00 436.00
628.00 436.00
652.00 436.00
676.00 436.00
100.00 460.00
124.00 460.00
148.00 460.00
172.00 460.00
196.00 460.00
220.00 460.00
244.00 460.00
268.00 460.00
292.00 460.00
316.00 460.00
340.00 460.00
364.00 460.00
388.00 460.00
412.00 460.00
436.00 460.00
460.00 460.00
652.00 460.00
676.00 460.00
100.00 484.00
124.00 484.00
148.00 484.00
172.00 484.00
196.00 484.00
220.00 484.00
244.00 484.00
268.00 484.00
292.00 484.00
316.00 484.00
340.00 484.00
364.00 484.00
388.00 484.00
412.00 484.00
436.00 484.00
652.00 484.00
676.00 484.00
100.00 508.00
124.00 508.00
148.00 508.00
172.00 508.00
196.00 508.00
220.00 508.00
244.00 508.00
268.00 508.00
292.00 508.00
316.00 508.00
340.00 508.00
364.00 508.00
388.00 508.00
412.00 508.00
436.00 508.00
676.00 508.00
100.00 532.00
124.00 532.00
148.00 532.00
172.00 532.00
196.00 532.00
220.00 532.00
244.00 532.00
268.00 532.00
292.00 532.00
316.00 532.00
340.00 532.00
364.00 532.00
388.00 532.00
412.00 532.00
676.00 532.00
100.00 556.00
124.00 556.00
148.00 556.00
172.00 556.00
196.00 556.00
220.00 556.00
244.00 556.00
268.00 556.00
292.00 556.00
316.00 556.00
340.00 556.00
364.00 556.00
388.00 556.00
412.00 556.00
676.00 556.00
100.00 580.00
124.00 580.00
148.00 580.00
172.00 580.00
196.00 580.00
220.00 580.00
244.00 580.00
268.00 580.00
292.00 580.00
316.00 580.00
340.00 580.00
364.00 580.00
388.00 580.00
412.00 580.00
676.00 580.00
100.00 604.00
124.00 604.00
148.00 604.00
172.00 604.00
196.00 604.00
220.00 604.00
244.00 604.00
268.00 604.00
292.00 604.00
316.00 604.00
340.00 604.00
364.00 604.00
388.00 604.00
412.00 604.00
436.00 604.00
676.00 604.00
100.00 628.00
124.00 628.00
148.00 628.00
172.00 628.00
196.00 628.00
220.00 628.00
244.00 628.00
268.00 628.00
292.00 628.00
316.00 628.00
340.00 628.00
364.00 628.00
388.00 628.00
412.00 628.00
436.00 628.00
652.00 628.00
676.00 628.00
100.00 652.00
124.00 652.00
148.00 652.00
172.00 652.00
196.00 652.00
220.00 652.00
244.00 652.00
268.00 652.00
292.00 652.00
316.00 652.00
340.00 652.00
364.00 652.00
388.00 652.00
412.00 652.00
436.00 652.00
460.00 652.00
484.00 652.00
628.00 652.00
652.00 652.00
676.00 652.00
100.00 676.00
124.00 676.00
148.00 676.00
172.00 676.00
196.00 676.00
220.00 676.00
244.00 676.00
268.00 676.00
292.00 676.00
316.00 676.00
340.00 676.00
364.00 676.00
388.00 676.00
412.00 676.00
436.00 676.00
460.00 676.00
484.00 676.00
508.00 676.00
532.00 676.00
556.00 676.00
580.00 676.00
604.00 676.00
628.00 676.00
652.00 676.00
676.00 676.00
